sat
(:max-memory         17.95
 :memory             17.95
 :nlsat-propagations 4
 :nlsat-stages       4
 :num-allocs         18423
 :rlimit-count       1032
 :time               0.00
 :total-time         0.01)
